p cnf 349 1680
c p weight 30 0 0
c p weight -30 1 0
c p weight 31 1.0 0
c p weight -31 1 0
c p weight 38 0 0
c p weight -38 1 0
c p weight 39 1.0 0
c p weight -39 1 0
c p weight 46 0 0
c p weight -46 1 0
c p weight 47 1.0 0
c p weight -47 1 0
c p weight 57 0 0
c p weight -57 1 0
c p weight 58 1.0 0
c p weight -58 1 0
c p weight 65 0 0
c p weight -65 1 0
c p weight 66 1.0 0
c p weight -66 1 0
c p weight 73 0 0
c p weight -73 1 0
c p weight 74 1.0 0
c p weight -74 1 0
c p weight 81 0 0
c p weight -81 1 0
c p weight 82 1.0 0
c p weight -82 1 0
c p weight 92 0 0
c p weight -92 1 0
c p weight 93 1.0 0
c p weight -93 1 0
c p weight 100 0 0
c p weight -100 1 0
c p weight 101 1.0 0
c p weight -101 1 0
c p weight 108 0 0
c p weight -108 1 0
c p weight 109 1.0 0
c p weight -109 1 0
c p weight 116 0 0
c p weight -116 1 0
c p weight 117 1.0 0
c p weight -117 1 0
c p weight 127 0 0
c p weight -127 1 0
c p weight 128 1.0 0
c p weight -128 1 0
c p weight 135 0 0
c p weight -135 1 0
c p weight 136 1.0 0
c p weight -136 1 0
c p weight 143 0 0
c p weight -143 1 0
c p weight 144 1.0 0
c p weight -144 1 0
c p weight 151 0 0
c p weight -151 1 0
c p weight 152 1.0 0
c p weight -152 1 0
c p weight 162 0 0
c p weight -162 1 0
c p weight 163 1.0 0
c p weight -163 1 0
c p weight 170 0 0
c p weight -170 1 0
c p weight 171 1.0 0
c p weight -171 1 0
c p weight 181 0 0
c p weight -181 1 0
c p weight 182 1.0 0
c p weight -182 1 0
c p weight 189 0 0
c p weight -189 1 0
c p weight 190 1.0 0
c p weight -190 1 0
c p weight 197 0 0
c p weight -197 1 0
c p weight 198 1.0 0
c p weight -198 1 0
c p weight 208 0 0
c p weight -208 1 0
c p weight 209 1.0 0
c p weight -209 1 0
c p weight 216 0 0
c p weight -216 1 0
c p weight 217 1.0 0
c p weight -217 1 0
c p weight 227 0 0
c p weight -227 1 0
c p weight 228 1.0 0
c p weight -228 1 0
c p weight 235 0 0
c p weight -235 1 0
c p weight 236 1.0 0
c p weight -236 1 0
c p weight 243 0 0
c p weight -243 1 0
c p weight 244 1.0 0
c p weight -244 1 0
c p weight 254 0 0
c p weight -254 1 0
c p weight 255 1.0 0
c p weight -255 1 0
c p weight 262 0 0
c p weight -262 1 0
c p weight 263 1.0 0
c p weight -263 1 0
c p weight 270 0 0
c p weight -270 1 0
c p weight 271 1.0 0
c p weight -271 1 0
c p weight 281 0 0
c p weight -281 1 0
c p weight 282 1.0 0
c p weight -282 1 0
c p weight 289 0 0
c p weight -289 1 0
c p weight 290 1.0 0
c p weight -290 1 0
c p weight 300 0 0
c p weight -300 1 0
c p weight 301 1.0 0
c p weight -301 1 0
c p weight 308 0 0
c p weight -308 1 0
c p weight 309 1.0 0
c p weight -309 1 0
c p weight 316 0 0
c p weight -316 1 0
c p weight 317 1.0 0
c p weight -317 1 0
c p weight 327 0 0
c p weight -327 1 0
c p weight 328 1.0 0
c p weight -328 1 0
c p weight 335 0 0
c p weight -335 1 0
c p weight 336 1.0 0
c p weight -336 1 0
c p weight 346 0 0
c p weight -346 1 0
c p weight 347 1.0 0
c p weight -347 1 0
26 -25 1 0
26 -25 2 0
-26 25 1 0
-26 25 2 0
26 25 -1 -2 0
-26 -25 -1 -2 0
27 1 -2 0
27 -1 2 0
-27 1 2 0
-27 -1 -2 0
28 29 -26 0
28 -26 27 0
-28 29 26 0
-28 26 27 0
28 -26 -1 0
-28 26 -1 0
28 -29 26 1 -27 0
-28 -29 -26 1 -27 0
29 -1 27 0
-29 1 27 0
-30 27 0
29 -30 -1 0
-29 -30 1 0
29 30 1 -27 0
-29 30 -1 -27 0
-31 27 0
29 -31 1 0
-29 -31 -1 0
29 31 -1 -27 0
-29 31 1 -27 0
32 -28 29 0
32 -28 27 0
-32 28 29 0
-32 28 27 0
32 28 -29 -27 0
-32 -28 -29 -27 0
33 29 -27 0
33 -29 27 0
-33 29 27 0
-33 -29 -27 0
34 -32 3 0
34 -32 4 0
-34 32 3 0
-34 32 4 0
34 32 -3 -4 0
-34 -32 -3 -4 0
35 3 -4 0
35 -3 4 0
-35 3 4 0
-35 -3 -4 0
36 37 -34 0
36 -34 35 0
-36 37 34 0
-36 34 35 0
36 -34 -3 0
-36 34 -3 0
36 -37 34 3 -35 0
-36 -37 -34 3 -35 0
37 -3 35 0
-37 3 35 0
-38 35 0
37 -38 -3 0
-37 -38 3 0
37 38 3 -35 0
-37 38 -3 -35 0
-39 35 0
37 -39 3 0
-37 -39 -3 0
37 39 -3 -35 0
-37 39 3 -35 0
40 -36 37 0
40 -36 35 0
-40 36 37 0
-40 36 35 0
40 36 -37 -35 0
-40 -36 -37 -35 0
41 37 -35 0
41 -37 35 0
-41 37 35 0
-41 -37 -35 0
42 -40 37 0
42 -40 41 0
-42 40 37 0
-42 40 41 0
42 40 -37 -41 0
-42 -40 -37 -41 0
43 37 -41 0
43 -37 41 0
-43 37 41 0
-43 -37 -41 0
44 45 -42 0
44 -42 43 0
-44 45 42 0
-44 42 43 0
44 -42 -37 0
-44 42 -37 0
44 -45 42 37 -43 0
-44 -45 -42 37 -43 0
45 -37 43 0
-45 37 43 0
-46 43 0
45 -46 -37 0
-45 -46 37 0
45 46 37 -43 0
-45 46 -37 -43 0
-47 43 0
45 -47 37 0
-45 -47 -37 0
45 47 -37 -43 0
-45 47 37 -43 0
48 -44 45 0
48 -44 43 0
-48 44 45 0
-48 44 43 0
48 44 -45 -43 0
-48 -44 -45 -43 0
49 45 -43 0
49 -45 43 0
-49 45 43 0
-49 -45 -43 0
50 -48 29 0
50 -48 49 0
-50 48 29 0
-50 48 49 0
50 -48 45 -33 0
50 -48 -45 33 0
-50 48 45 -33 0
-50 48 -45 33 0
50 48 -29 45 33 -49 0
50 48 -29 -45 -33 -49 0
-50 -48 -29 45 33 -49 0
-50 -48 -29 -45 -33 -49 0
52 29 -45 0
52 -29 45 0
-52 29 45 0
-52 -29 -45 0
51 33 -49 0
51 -33 49 0
-51 33 49 0
-51 -33 -49 0
53 -50 52 0
53 -50 49 0
-53 50 52 0
-53 50 49 0
53 50 -52 -49 0
-53 -50 -52 -49 0
54 52 -49 0
54 -52 49 0
-54 52 49 0
-54 -52 -49 0
55 56 -53 0
55 -53 54 0
-55 56 53 0
-55 53 54 0
55 -53 -52 0
-55 53 -52 0
55 -56 53 52 -54 0
-55 -56 -53 52 -54 0
56 -52 54 0
-56 52 54 0
-57 54 0
56 -57 -52 0
-56 -57 52 0
56 57 52 -54 0
-56 57 -52 -54 0
-58 54 0
56 -58 52 0
-56 -58 -52 0
56 58 -52 -54 0
-56 58 52 -54 0
59 -55 56 0
59 -55 54 0
-59 55 56 0
-59 55 54 0
59 55 -56 -54 0
-59 -55 -56 -54 0
60 56 -54 0
60 -56 54 0
-60 56 54 0
-60 -56 -54 0
61 -59 5 0
61 -59 6 0
-61 59 5 0
-61 59 6 0
61 59 -5 -6 0
-61 -59 -5 -6 0
62 5 -6 0
62 -5 6 0
-62 5 6 0
-62 -5 -6 0
63 64 -61 0
63 -61 62 0
-63 64 61 0
-63 61 62 0
63 -61 -5 0
-63 61 -5 0
63 -64 61 5 -62 0
-63 -64 -61 5 -62 0
64 -5 62 0
-64 5 62 0
-65 62 0
64 -65 -5 0
-64 -65 5 0
64 65 5 -62 0
-64 65 -5 -62 0
-66 62 0
64 -66 5 0
-64 -66 -5 0
64 66 -5 -62 0
-64 66 5 -62 0
67 -63 64 0
67 -63 62 0
-67 63 64 0
-67 63 62 0
67 63 -64 -62 0
-67 -63 -64 -62 0
68 64 -62 0
68 -64 62 0
-68 64 62 0
-68 -64 -62 0
69 -67 7 0
69 -67 8 0
-69 67 7 0
-69 67 8 0
69 67 -7 -8 0
-69 -67 -7 -8 0
70 7 -8 0
70 -7 8 0
-70 7 8 0
-70 -7 -8 0
71 72 -69 0
71 -69 70 0
-71 72 69 0
-71 69 70 0
71 -69 -7 0
-71 69 -7 0
71 -72 69 7 -70 0
-71 -72 -69 7 -70 0
72 -7 70 0
-72 7 70 0
-73 70 0
72 -73 -7 0
-72 -73 7 0
72 73 7 -70 0
-72 73 -7 -70 0
-74 70 0
72 -74 7 0
-72 -74 -7 0
72 74 -7 -70 0
-72 74 7 -70 0
75 -71 72 0
75 -71 70 0
-75 71 72 0
-75 71 70 0
75 71 -72 -70 0
-75 -71 -72 -70 0
76 72 -70 0
76 -72 70 0
-76 72 70 0
-76 -72 -70 0
77 -75 72 0
77 -75 76 0
-77 75 72 0
-77 75 76 0
77 75 -72 -76 0
-77 -75 -72 -76 0
78 72 -76 0
78 -72 76 0
-78 72 76 0
-78 -72 -76 0
79 80 -77 0
79 -77 78 0
-79 80 77 0
-79 77 78 0
79 -77 -72 0
-79 77 -72 0
79 -80 77 72 -78 0
-79 -80 -77 72 -78 0
80 -72 78 0
-80 72 78 0
-81 78 0
80 -81 -72 0
-80 -81 72 0
80 81 72 -78 0
-80 81 -72 -78 0
-82 78 0
80 -82 72 0
-80 -82 -72 0
80 82 -72 -78 0
-80 82 72 -78 0
83 -79 80 0
83 -79 78 0
-83 79 80 0
-83 79 78 0
83 79 -80 -78 0
-83 -79 -80 -78 0
84 80 -78 0
84 -80 78 0
-84 80 78 0
-84 -80 -78 0
85 -83 64 0
85 -83 84 0
-85 83 64 0
-85 83 84 0
85 -83 80 -68 0
85 -83 -80 68 0
-85 83 80 -68 0
-85 83 -80 68 0
85 83 -64 80 68 -84 0
85 83 -64 -80 -68 -84 0
-85 -83 -64 80 68 -84 0
-85 -83 -64 -80 -68 -84 0
87 64 -80 0
87 -64 80 0
-87 64 80 0
-87 -64 -80 0
86 68 -84 0
86 -68 84 0
-86 68 84 0
-86 -68 -84 0
88 -85 87 0
88 -85 84 0
-88 85 87 0
-88 85 84 0
88 85 -87 -84 0
-88 -85 -87 -84 0
89 87 -84 0
89 -87 84 0
-89 87 84 0
-89 -87 -84 0
90 91 -88 0
90 -88 89 0
-90 91 88 0
-90 88 89 0
90 -88 -87 0
-90 88 -87 0
90 -91 88 87 -89 0
-90 -91 -88 87 -89 0
91 -87 89 0
-91 87 89 0
-92 89 0
91 -92 -87 0
-91 -92 87 0
91 92 87 -89 0
-91 92 -87 -89 0
-93 89 0
91 -93 87 0
-91 -93 -87 0
91 93 -87 -89 0
-91 93 87 -89 0
94 -90 91 0
94 -90 89 0
-94 90 91 0
-94 90 89 0
94 90 -91 -89 0
-94 -90 -91 -89 0
95 91 -89 0
95 -91 89 0
-95 91 89 0
-95 -91 -89 0
96 -94 9 0
96 -94 10 0
-96 94 9 0
-96 94 10 0
96 94 -9 -10 0
-96 -94 -9 -10 0
97 9 -10 0
97 -9 10 0
-97 9 10 0
-97 -9 -10 0
98 99 -96 0
98 -96 97 0
-98 99 96 0
-98 96 97 0
98 -96 -9 0
-98 96 -9 0
98 -99 96 9 -97 0
-98 -99 -96 9 -97 0
99 -9 97 0
-99 9 97 0
-100 97 0
99 -100 -9 0
-99 -100 9 0
99 100 9 -97 0
-99 100 -9 -97 0
-101 97 0
99 -101 9 0
-99 -101 -9 0
99 101 -9 -97 0
-99 101 9 -97 0
102 -98 99 0
102 -98 97 0
-102 98 99 0
-102 98 97 0
102 98 -99 -97 0
-102 -98 -99 -97 0
103 99 -97 0
103 -99 97 0
-103 99 97 0
-103 -99 -97 0
104 -102 11 0
104 -102 12 0
-104 102 11 0
-104 102 12 0
104 102 -11 -12 0
-104 -102 -11 -12 0
105 11 -12 0
105 -11 12 0
-105 11 12 0
-105 -11 -12 0
106 107 -104 0
106 -104 105 0
-106 107 104 0
-106 104 105 0
106 -104 -11 0
-106 104 -11 0
106 -107 104 11 -105 0
-106 -107 -104 11 -105 0
107 -11 105 0
-107 11 105 0
-108 105 0
107 -108 -11 0
-107 -108 11 0
107 108 11 -105 0
-107 108 -11 -105 0
-109 105 0
107 -109 11 0
-107 -109 -11 0
107 109 -11 -105 0
-107 109 11 -105 0
110 -106 107 0
110 -106 105 0
-110 106 107 0
-110 106 105 0
110 106 -107 -105 0
-110 -106 -107 -105 0
111 107 -105 0
111 -107 105 0
-111 107 105 0
-111 -107 -105 0
112 -110 107 0
112 -110 111 0
-112 110 107 0
-112 110 111 0
112 110 -107 -111 0
-112 -110 -107 -111 0
113 107 -111 0
113 -107 111 0
-113 107 111 0
-113 -107 -111 0
114 115 -112 0
114 -112 113 0
-114 115 112 0
-114 112 113 0
114 -112 -107 0
-114 112 -107 0
114 -115 112 107 -113 0
-114 -115 -112 107 -113 0
115 -107 113 0
-115 107 113 0
-116 113 0
115 -116 -107 0
-115 -116 107 0
115 116 107 -113 0
-115 116 -107 -113 0
-117 113 0
115 -117 107 0
-115 -117 -107 0
115 117 -107 -113 0
-115 117 107 -113 0
118 -114 115 0
118 -114 113 0
-118 114 115 0
-118 114 113 0
118 114 -115 -113 0
-118 -114 -115 -113 0
119 115 -113 0
119 -115 113 0
-119 115 113 0
-119 -115 -113 0
120 -118 99 0
120 -118 119 0
-120 118 99 0
-120 118 119 0
120 -118 115 -103 0
120 -118 -115 103 0
-120 118 115 -103 0
-120 118 -115 103 0
120 118 -99 115 103 -119 0
120 118 -99 -115 -103 -119 0
-120 -118 -99 115 103 -119 0
-120 -118 -99 -115 -103 -119 0
122 99 -115 0
122 -99 115 0
-122 99 115 0
-122 -99 -115 0
121 103 -119 0
121 -103 119 0
-121 103 119 0
-121 -103 -119 0
123 -120 122 0
123 -120 119 0
-123 120 122 0
-123 120 119 0
123 120 -122 -119 0
-123 -120 -122 -119 0
124 122 -119 0
124 -122 119 0
-124 122 119 0
-124 -122 -119 0
125 126 -123 0
125 -123 124 0
-125 126 123 0
-125 123 124 0
125 -123 -122 0
-125 123 -122 0
125 -126 123 122 -124 0
-125 -126 -123 122 -124 0
126 -122 124 0
-126 122 124 0
-127 124 0
126 -127 -122 0
-126 -127 122 0
126 127 122 -124 0
-126 127 -122 -124 0
-128 124 0
126 -128 122 0
-126 -128 -122 0
126 128 -122 -124 0
-126 128 122 -124 0
129 -125 126 0
129 -125 124 0
-129 125 126 0
-129 125 124 0
129 125 -126 -124 0
-129 -125 -126 -124 0
130 126 -124 0
130 -126 124 0
-130 126 124 0
-130 -126 -124 0
131 -129 13 0
131 -129 14 0
-131 129 13 0
-131 129 14 0
131 129 -13 -14 0
-131 -129 -13 -14 0
132 13 -14 0
132 -13 14 0
-132 13 14 0
-132 -13 -14 0
133 134 -131 0
133 -131 132 0
-133 134 131 0
-133 131 132 0
133 -131 -13 0
-133 131 -13 0
133 -134 131 13 -132 0
-133 -134 -131 13 -132 0
134 -13 132 0
-134 13 132 0
-135 132 0
134 -135 -13 0
-134 -135 13 0
134 135 13 -132 0
-134 135 -13 -132 0
-136 132 0
134 -136 13 0
-134 -136 -13 0
134 136 -13 -132 0
-134 136 13 -132 0
137 -133 134 0
137 -133 132 0
-137 133 134 0
-137 133 132 0
137 133 -134 -132 0
-137 -133 -134 -132 0
138 134 -132 0
138 -134 132 0
-138 134 132 0
-138 -134 -132 0
139 -137 15 0
139 -137 16 0
-139 137 15 0
-139 137 16 0
139 137 -15 -16 0
-139 -137 -15 -16 0
140 15 -16 0
140 -15 16 0
-140 15 16 0
-140 -15 -16 0
141 142 -139 0
141 -139 140 0
-141 142 139 0
-141 139 140 0
141 -139 -15 0
-141 139 -15 0
141 -142 139 15 -140 0
-141 -142 -139 15 -140 0
142 -15 140 0
-142 15 140 0
-143 140 0
142 -143 -15 0
-142 -143 15 0
142 143 15 -140 0
-142 143 -15 -140 0
-144 140 0
142 -144 15 0
-142 -144 -15 0
142 144 -15 -140 0
-142 144 15 -140 0
145 -141 142 0
145 -141 140 0
-145 141 142 0
-145 141 140 0
145 141 -142 -140 0
-145 -141 -142 -140 0
146 142 -140 0
146 -142 140 0
-146 142 140 0
-146 -142 -140 0
147 -145 142 0
147 -145 146 0
-147 145 142 0
-147 145 146 0
147 145 -142 -146 0
-147 -145 -142 -146 0
148 142 -146 0
148 -142 146 0
-148 142 146 0
-148 -142 -146 0
149 150 -147 0
149 -147 148 0
-149 150 147 0
-149 147 148 0
149 -147 -142 0
-149 147 -142 0
149 -150 147 142 -148 0
-149 -150 -147 142 -148 0
150 -142 148 0
-150 142 148 0
-151 148 0
150 -151 -142 0
-150 -151 142 0
150 151 142 -148 0
-150 151 -142 -148 0
-152 148 0
150 -152 142 0
-150 -152 -142 0
150 152 -142 -148 0
-150 152 142 -148 0
153 -149 150 0
153 -149 148 0
-153 149 150 0
-153 149 148 0
153 149 -150 -148 0
-153 -149 -150 -148 0
154 150 -148 0
154 -150 148 0
-154 150 148 0
-154 -150 -148 0
155 -153 99 0
155 -153 154 0
-155 153 99 0
-155 153 154 0
155 -153 150 -121 0
155 -153 -150 121 0
-155 153 150 -121 0
-155 153 -150 121 0
155 153 -99 150 121 -154 0
155 153 -99 -150 -121 -154 0
-155 -153 -99 150 121 -154 0
-155 -153 -99 -150 -121 -154 0
157 99 -150 0
157 -99 150 0
-157 99 150 0
-157 -99 -150 0
156 121 -154 0
156 -121 154 0
-156 121 154 0
-156 -121 -154 0
158 -155 157 0
158 -155 154 0
-158 155 157 0
-158 155 154 0
158 155 -157 -154 0
-158 -155 -157 -154 0
159 157 -154 0
159 -157 154 0
-159 157 154 0
-159 -157 -154 0
160 161 -158 0
160 -158 159 0
-160 161 158 0
-160 158 159 0
160 -158 -157 0
-160 158 -157 0
160 -161 158 157 -159 0
-160 -161 -158 157 -159 0
161 -157 159 0
-161 157 159 0
-162 159 0
161 -162 -157 0
-161 -162 157 0
161 162 157 -159 0
-161 162 -157 -159 0
-163 159 0
161 -163 157 0
-161 -163 -157 0
161 163 -157 -159 0
-161 163 157 -159 0
164 -160 161 0
164 -160 159 0
-164 160 161 0
-164 160 159 0
164 160 -161 -159 0
-164 -160 -161 -159 0
165 161 -159 0
165 -161 159 0
-165 161 159 0
-165 -161 -159 0
166 -164 161 0
166 -164 165 0
-166 164 161 0
-166 164 165 0
166 164 -161 -165 0
-166 -164 -161 -165 0
167 161 -165 0
167 -161 165 0
-167 161 165 0
-167 -161 -165 0
168 169 -166 0
168 -166 167 0
-168 169 166 0
-168 166 167 0
168 -166 -161 0
-168 166 -161 0
168 -169 166 161 -167 0
-168 -169 -166 161 -167 0
169 -161 167 0
-169 161 167 0
-170 167 0
169 -170 -161 0
-169 -170 161 0
169 170 161 -167 0
-169 170 -161 -167 0
-171 167 0
169 -171 161 0
-169 -171 -161 0
169 171 -161 -167 0
-169 171 161 -167 0
172 -168 169 0
172 -168 167 0
-172 168 169 0
-172 168 167 0
172 168 -169 -167 0
-172 -168 -169 -167 0
173 169 -167 0
173 -169 167 0
-173 169 167 0
-173 -169 -167 0
174 -172 134 0
174 -172 173 0
-174 172 134 0
-174 172 173 0
174 -172 169 -138 0
174 -172 -169 138 0
-174 172 169 -138 0
-174 172 -169 138 0
174 172 -134 169 138 -173 0
174 172 -134 -169 -138 -173 0
-174 -172 -134 169 138 -173 0
-174 -172 -134 -169 -138 -173 0
176 134 -169 0
176 -134 169 0
-176 134 169 0
-176 -134 -169 0
175 138 -173 0
175 -138 173 0
-175 138 173 0
-175 -138 -173 0
177 -174 176 0
177 -174 173 0
-177 174 176 0
-177 174 173 0
177 174 -176 -173 0
-177 -174 -176 -173 0
178 176 -173 0
178 -176 173 0
-178 176 173 0
-178 -176 -173 0
179 180 -177 0
179 -177 178 0
-179 180 177 0
-179 177 178 0
179 -177 -176 0
-179 177 -176 0
179 -180 177 176 -178 0
-179 -180 -177 176 -178 0
180 -176 178 0
-180 176 178 0
-181 178 0
180 -181 -176 0
-180 -181 176 0
180 181 176 -178 0
-180 181 -176 -178 0
-182 178 0
180 -182 176 0
-180 -182 -176 0
180 182 -176 -178 0
-180 182 176 -178 0
183 -179 180 0
183 -179 178 0
-183 179 180 0
-183 179 178 0
183 179 -180 -178 0
-183 -179 -180 -178 0
184 180 -178 0
184 -180 178 0
-184 180 178 0
-184 -180 -178 0
185 -183 17 0
185 -183 18 0
-185 183 17 0
-185 183 18 0
185 183 -17 -18 0
-185 -183 -17 -18 0
186 17 -18 0
186 -17 18 0
-186 17 18 0
-186 -17 -18 0
187 188 -185 0
187 -185 186 0
-187 188 185 0
-187 185 186 0
187 -185 -17 0
-187 185 -17 0
187 -188 185 17 -186 0
-187 -188 -185 17 -186 0
188 -17 186 0
-188 17 186 0
-189 186 0
188 -189 -17 0
-188 -189 17 0
188 189 17 -186 0
-188 189 -17 -186 0
-190 186 0
188 -190 17 0
-188 -190 -17 0
188 190 -17 -186 0
-188 190 17 -186 0
191 -187 188 0
191 -187 186 0
-191 187 188 0
-191 187 186 0
191 187 -188 -186 0
-191 -187 -188 -186 0
192 188 -186 0
192 -188 186 0
-192 188 186 0
-192 -188 -186 0
193 -191 188 0
193 -191 192 0
-193 191 188 0
-193 191 192 0
193 191 -188 -192 0
-193 -191 -188 -192 0
194 188 -192 0
194 -188 192 0
-194 188 192 0
-194 -188 -192 0
195 196 -193 0
195 -193 194 0
-195 196 193 0
-195 193 194 0
195 -193 -188 0
-195 193 -188 0
195 -196 193 188 -194 0
-195 -196 -193 188 -194 0
196 -188 194 0
-196 188 194 0
-197 194 0
196 -197 -188 0
-196 -197 188 0
196 197 188 -194 0
-196 197 -188 -194 0
-198 194 0
196 -198 188 0
-196 -198 -188 0
196 198 -188 -194 0
-196 198 188 -194 0
199 -195 196 0
199 -195 194 0
-199 195 196 0
-199 195 194 0
199 195 -196 -194 0
-199 -195 -196 -194 0
200 196 -194 0
200 -196 194 0
-200 196 194 0
-200 -196 -194 0
201 -199 91 0
201 -199 200 0
-201 199 91 0
-201 199 200 0
201 -199 196 -95 0
201 -199 -196 95 0
-201 199 196 -95 0
-201 199 -196 95 0
201 199 -91 196 95 -200 0
201 199 -91 -196 -95 -200 0
-201 -199 -91 196 95 -200 0
-201 -199 -91 -196 -95 -200 0
203 91 -196 0
203 -91 196 0
-203 91 196 0
-203 -91 -196 0
202 95 -200 0
202 -95 200 0
-202 95 200 0
-202 -95 -200 0
204 -201 203 0
204 -201 200 0
-204 201 203 0
-204 201 200 0
204 201 -203 -200 0
-204 -201 -203 -200 0
205 203 -200 0
205 -203 200 0
-205 203 200 0
-205 -203 -200 0
206 207 -204 0
206 -204 205 0
-206 207 204 0
-206 204 205 0
206 -204 -203 0
-206 204 -203 0
206 -207 204 203 -205 0
-206 -207 -204 203 -205 0
207 -203 205 0
-207 203 205 0
-208 205 0
207 -208 -203 0
-207 -208 203 0
207 208 203 -205 0
-207 208 -203 -205 0
-209 205 0
207 -209 203 0
-207 -209 -203 0
207 209 -203 -205 0
-207 209 203 -205 0
210 -206 207 0
210 -206 205 0
-210 206 207 0
-210 206 205 0
210 206 -207 -205 0
-210 -206 -207 -205 0
211 207 -205 0
211 -207 205 0
-211 207 205 0
-211 -207 -205 0
212 -210 207 0
212 -210 211 0
-212 210 207 0
-212 210 211 0
212 210 -207 -211 0
-212 -210 -207 -211 0
213 207 -211 0
213 -207 211 0
-213 207 211 0
-213 -207 -211 0
214 215 -212 0
214 -212 213 0
-214 215 212 0
-214 212 213 0
214 -212 -207 0
-214 212 -207 0
214 -215 212 207 -213 0
-214 -215 -212 207 -213 0
215 -207 213 0
-215 207 213 0
-216 213 0
215 -216 -207 0
-215 -216 207 0
215 216 207 -213 0
-215 216 -207 -213 0
-217 213 0
215 -217 207 0
-215 -217 -207 0
215 217 -207 -213 0
-215 217 207 -213 0
218 -214 215 0
218 -214 213 0
-218 214 215 0
-218 214 213 0
218 214 -215 -213 0
-218 -214 -215 -213 0
219 215 -213 0
219 -215 213 0
-219 215 213 0
-219 -215 -213 0
220 -218 134 0
220 -218 219 0
-220 218 134 0
-220 218 219 0
220 -218 215 -175 0
220 -218 -215 175 0
-220 218 215 -175 0
-220 218 -215 175 0
220 218 -134 215 175 -219 0
220 218 -134 -215 -175 -219 0
-220 -218 -134 215 175 -219 0
-220 -218 -134 -215 -175 -219 0
222 134 -215 0
222 -134 215 0
-222 134 215 0
-222 -134 -215 0
221 175 -219 0
221 -175 219 0
-221 175 219 0
-221 -175 -219 0
223 -220 222 0
223 -220 219 0
-223 220 222 0
-223 220 219 0
223 220 -222 -219 0
-223 -220 -222 -219 0
224 222 -219 0
224 -222 219 0
-224 222 219 0
-224 -222 -219 0
225 226 -223 0
225 -223 224 0
-225 226 223 0
-225 223 224 0
225 -223 -222 0
-225 223 -222 0
225 -226 223 222 -224 0
-225 -226 -223 222 -224 0
226 -222 224 0
-226 222 224 0
-227 224 0
226 -227 -222 0
-226 -227 222 0
226 227 222 -224 0
-226 227 -222 -224 0
-228 224 0
226 -228 222 0
-226 -228 -222 0
226 228 -222 -224 0
-226 228 222 -224 0
229 -225 226 0
229 -225 224 0
-229 225 226 0
-229 225 224 0
229 225 -226 -224 0
-229 -225 -226 -224 0
230 226 -224 0
230 -226 224 0
-230 226 224 0
-230 -226 -224 0
231 -229 19 0
231 -229 20 0
-231 229 19 0
-231 229 20 0
231 229 -19 -20 0
-231 -229 -19 -20 0
232 19 -20 0
232 -19 20 0
-232 19 20 0
-232 -19 -20 0
233 234 -231 0
233 -231 232 0
-233 234 231 0
-233 231 232 0
233 -231 -19 0
-233 231 -19 0
233 -234 231 19 -232 0
-233 -234 -231 19 -232 0
234 -19 232 0
-234 19 232 0
-235 232 0
234 -235 -19 0
-234 -235 19 0
234 235 19 -232 0
-234 235 -19 -232 0
-236 232 0
234 -236 19 0
-234 -236 -19 0
234 236 -19 -232 0
-234 236 19 -232 0
237 -233 234 0
237 -233 232 0
-237 233 234 0
-237 233 232 0
237 233 -234 -232 0
-237 -233 -234 -232 0
238 234 -232 0
238 -234 232 0
-238 234 232 0
-238 -234 -232 0
239 -237 234 0
239 -237 238 0
-239 237 234 0
-239 237 238 0
239 237 -234 -238 0
-239 -237 -234 -238 0
240 234 -238 0
240 -234 238 0
-240 234 238 0
-240 -234 -238 0
241 242 -239 0
241 -239 240 0
-241 242 239 0
-241 239 240 0
241 -239 -234 0
-241 239 -234 0
241 -242 239 234 -240 0
-241 -242 -239 234 -240 0
242 -234 240 0
-242 234 240 0
-243 240 0
242 -243 -234 0
-242 -243 234 0
242 243 234 -240 0
-242 243 -234 -240 0
-244 240 0
242 -244 234 0
-242 -244 -234 0
242 244 -234 -240 0
-242 244 234 -240 0
245 -241 242 0
245 -241 240 0
-245 241 242 0
-245 241 240 0
245 241 -242 -240 0
-245 -241 -242 -240 0
246 242 -240 0
246 -242 240 0
-246 242 240 0
-246 -242 -240 0
247 -245 56 0
247 -245 246 0
-247 245 56 0
-247 245 246 0
247 -245 242 -60 0
247 -245 -242 60 0
-247 245 242 -60 0
-247 245 -242 60 0
247 245 -56 242 60 -246 0
247 245 -56 -242 -60 -246 0
-247 -245 -56 242 60 -246 0
-247 -245 -56 -242 -60 -246 0
249 56 -242 0
249 -56 242 0
-249 56 242 0
-249 -56 -242 0
248 60 -246 0
248 -60 246 0
-248 60 246 0
-248 -60 -246 0
250 -247 249 0
250 -247 246 0
-250 247 249 0
-250 247 246 0
250 247 -249 -246 0
-250 -247 -249 -246 0
251 249 -246 0
251 -249 246 0
-251 249 246 0
-251 -249 -246 0
252 253 -250 0
252 -250 251 0
-252 253 250 0
-252 250 251 0
252 -250 -249 0
-252 250 -249 0
252 -253 250 249 -251 0
-252 -253 -250 249 -251 0
253 -249 251 0
-253 249 251 0
-254 251 0
253 -254 -249 0
-253 -254 249 0
253 254 249 -251 0
-253 254 -249 -251 0
-255 251 0
253 -255 249 0
-253 -255 -249 0
253 255 -249 -251 0
-253 255 249 -251 0
256 -252 253 0
256 -252 251 0
-256 252 253 0
-256 252 251 0
256 252 -253 -251 0
-256 -252 -253 -251 0
257 253 -251 0
257 -253 251 0
-257 253 251 0
-257 -253 -251 0
258 -256 21 0
258 -256 22 0
-258 256 21 0
-258 256 22 0
258 256 -21 -22 0
-258 -256 -21 -22 0
259 21 -22 0
259 -21 22 0
-259 21 22 0
-259 -21 -22 0
260 261 -258 0
260 -258 259 0
-260 261 258 0
-260 258 259 0
260 -258 -21 0
-260 258 -21 0
260 -261 258 21 -259 0
-260 -261 -258 21 -259 0
261 -21 259 0
-261 21 259 0
-262 259 0
261 -262 -21 0
-261 -262 21 0
261 262 21 -259 0
-261 262 -21 -259 0
-263 259 0
261 -263 21 0
-261 -263 -21 0
261 263 -21 -259 0
-261 263 21 -259 0
264 -260 261 0
264 -260 259 0
-264 260 261 0
-264 260 259 0
264 260 -261 -259 0
-264 -260 -261 -259 0
265 261 -259 0
265 -261 259 0
-265 261 259 0
-265 -261 -259 0
266 -264 261 0
266 -264 265 0
-266 264 261 0
-266 264 265 0
266 264 -261 -265 0
-266 -264 -261 -265 0
267 261 -265 0
267 -261 265 0
-267 261 265 0
-267 -261 -265 0
268 269 -266 0
268 -266 267 0
-268 269 266 0
-268 266 267 0
268 -266 -261 0
-268 266 -261 0
268 -269 266 261 -267 0
-268 -269 -266 261 -267 0
269 -261 267 0
-269 261 267 0
-270 267 0
269 -270 -261 0
-269 -270 261 0
269 270 261 -267 0
-269 270 -261 -267 0
-271 267 0
269 -271 261 0
-269 -271 -261 0
269 271 -261 -267 0
-269 271 261 -267 0
272 -268 269 0
272 -268 267 0
-272 268 269 0
-272 268 267 0
272 268 -269 -267 0
-272 -268 -269 -267 0
273 269 -267 0
273 -269 267 0
-273 269 267 0
-273 -269 -267 0
274 -272 29 0
274 -272 273 0
-274 272 29 0
-274 272 273 0
274 -272 269 -51 0
274 -272 -269 51 0
-274 272 269 -51 0
-274 272 -269 51 0
274 272 -29 269 51 -273 0
274 272 -29 -269 -51 -273 0
-274 -272 -29 269 51 -273 0
-274 -272 -29 -269 -51 -273 0
276 29 -269 0
276 -29 269 0
-276 29 269 0
-276 -29 -269 0
275 51 -273 0
275 -51 273 0
-275 51 273 0
-275 -51 -273 0
277 -274 276 0
277 -274 273 0
-277 274 276 0
-277 274 273 0
277 274 -276 -273 0
-277 -274 -276 -273 0
278 276 -273 0
278 -276 273 0
-278 276 273 0
-278 -276 -273 0
279 280 -277 0
279 -277 278 0
-279 280 277 0
-279 277 278 0
279 -277 -276 0
-279 277 -276 0
279 -280 277 276 -278 0
-279 -280 -277 276 -278 0
280 -276 278 0
-280 276 278 0
-281 278 0
280 -281 -276 0
-280 -281 276 0
280 281 276 -278 0
-280 281 -276 -278 0
-282 278 0
280 -282 276 0
-280 -282 -276 0
280 282 -276 -278 0
-280 282 276 -278 0
283 -279 280 0
283 -279 278 0
-283 279 280 0
-283 279 278 0
283 279 -280 -278 0
-283 -279 -280 -278 0
284 280 -278 0
284 -280 278 0
-284 280 278 0
-284 -280 -278 0
285 -283 280 0
285 -283 284 0
-285 283 280 0
-285 283 284 0
285 283 -280 -284 0
-285 -283 -280 -284 0
286 280 -284 0
286 -280 284 0
-286 280 284 0
-286 -280 -284 0
287 288 -285 0
287 -285 286 0
-287 288 285 0
-287 285 286 0
287 -285 -280 0
-287 285 -280 0
287 -288 285 280 -286 0
-287 -288 -285 280 -286 0
288 -280 286 0
-288 280 286 0
-289 286 0
288 -289 -280 0
-288 -289 280 0
288 289 280 -286 0
-288 289 -280 -286 0
-290 286 0
288 -290 280 0
-288 -290 -280 0
288 290 -280 -286 0
-288 290 280 -286 0
291 -287 288 0
291 -287 286 0
-291 287 288 0
-291 287 286 0
291 287 -288 -286 0
-291 -287 -288 -286 0
292 288 -286 0
292 -288 286 0
-292 288 286 0
-292 -288 -286 0
293 -291 253 0
293 -291 292 0
-293 291 253 0
-293 291 292 0
293 -291 288 -257 0
293 -291 -288 257 0
-293 291 288 -257 0
-293 291 -288 257 0
293 291 -253 288 257 -292 0
293 291 -253 -288 -257 -292 0
-293 -291 -253 288 257 -292 0
-293 -291 -253 -288 -257 -292 0
295 253 -288 0
295 -253 288 0
-295 253 288 0
-295 -253 -288 0
294 257 -292 0
294 -257 292 0
-294 257 292 0
-294 -257 -292 0
296 -293 295 0
296 -293 292 0
-296 293 295 0
-296 293 292 0
296 293 -295 -292 0
-296 -293 -295 -292 0
297 295 -292 0
297 -295 292 0
-297 295 292 0
-297 -295 -292 0
298 299 -296 0
298 -296 297 0
-298 299 296 0
-298 296 297 0
298 -296 -295 0
-298 296 -295 0
298 -299 296 295 -297 0
-298 -299 -296 295 -297 0
299 -295 297 0
-299 295 297 0
-300 297 0
299 -300 -295 0
-299 -300 295 0
299 300 295 -297 0
-299 300 -295 -297 0
-301 297 0
299 -301 295 0
-299 -301 -295 0
299 301 -295 -297 0
-299 301 295 -297 0
302 -298 299 0
302 -298 297 0
-302 298 299 0
-302 298 297 0
302 298 -299 -297 0
-302 -298 -299 -297 0
303 299 -297 0
303 -299 297 0
-303 299 297 0
-303 -299 -297 0
304 -302 23 0
304 -302 24 0
-304 302 23 0
-304 302 24 0
304 302 -23 -24 0
-304 -302 -23 -24 0
305 23 -24 0
305 -23 24 0
-305 23 24 0
-305 -23 -24 0
306 307 -304 0
306 -304 305 0
-306 307 304 0
-306 304 305 0
306 -304 -23 0
-306 304 -23 0
306 -307 304 23 -305 0
-306 -307 -304 23 -305 0
307 -23 305 0
-307 23 305 0
-308 305 0
307 -308 -23 0
-307 -308 23 0
307 308 23 -305 0
-307 308 -23 -305 0
-309 305 0
307 -309 23 0
-307 -309 -23 0
307 309 -23 -305 0
-307 309 23 -305 0
310 -306 307 0
310 -306 305 0
-310 306 307 0
-310 306 305 0
310 306 -307 -305 0
-310 -306 -307 -305 0
311 307 -305 0
311 -307 305 0
-311 307 305 0
-311 -307 -305 0
312 -310 307 0
312 -310 311 0
-312 310 307 0
-312 310 311 0
312 310 -307 -311 0
-312 -310 -307 -311 0
313 307 -311 0
313 -307 311 0
-313 307 311 0
-313 -307 -311 0
314 315 -312 0
314 -312 313 0
-314 315 312 0
-314 312 313 0
314 -312 -307 0
-314 312 -307 0
314 -315 312 307 -313 0
-314 -315 -312 307 -313 0
315 -307 313 0
-315 307 313 0
-316 313 0
315 -316 -307 0
-315 -316 307 0
315 316 307 -313 0
-315 316 -307 -313 0
-317 313 0
315 -317 307 0
-315 -317 -307 0
315 317 -307 -313 0
-315 317 307 -313 0
318 -314 315 0
318 -314 313 0
-318 314 315 0
-318 314 313 0
318 314 -315 -313 0
-318 -314 -315 -313 0
319 315 -313 0
319 -315 313 0
-319 315 313 0
-319 -315 -313 0
320 -318 64 0
320 -318 319 0
-320 318 64 0
-320 318 319 0
320 -318 315 -86 0
320 -318 -315 86 0
-320 318 315 -86 0
-320 318 -315 86 0
320 318 -64 315 86 -319 0
320 318 -64 -315 -86 -319 0
-320 -318 -64 315 86 -319 0
-320 -318 -64 -315 -86 -319 0
322 64 -315 0
322 -64 315 0
-322 64 315 0
-322 -64 -315 0
321 86 -319 0
321 -86 319 0
-321 86 319 0
-321 -86 -319 0
323 -320 322 0
323 -320 319 0
-323 320 322 0
-323 320 319 0
323 320 -322 -319 0
-323 -320 -322 -319 0
324 322 -319 0
324 -322 319 0
-324 322 319 0
-324 -322 -319 0
325 326 -323 0
325 -323 324 0
-325 326 323 0
-325 323 324 0
325 -323 -322 0
-325 323 -322 0
325 -326 323 322 -324 0
-325 -326 -323 322 -324 0
326 -322 324 0
-326 322 324 0
-327 324 0
326 -327 -322 0
-326 -327 322 0
326 327 322 -324 0
-326 327 -322 -324 0
-328 324 0
326 -328 322 0
-326 -328 -322 0
326 328 -322 -324 0
-326 328 322 -324 0
329 -325 326 0
329 -325 324 0
-329 325 326 0
-329 325 324 0
329 325 -326 -324 0
-329 -325 -326 -324 0
330 326 -324 0
330 -326 324 0
-330 326 324 0
-330 -326 -324 0
331 -329 326 0
331 -329 330 0
-331 329 326 0
-331 329 330 0
331 329 -326 -330 0
-331 -329 -326 -330 0
332 326 -330 0
332 -326 330 0
-332 326 330 0
-332 -326 -330 0
333 334 -331 0
333 -331 332 0
-333 334 331 0
-333 331 332 0
333 -331 -326 0
-333 331 -326 0
333 -334 331 326 -332 0
-333 -334 -331 326 -332 0
334 -326 332 0
-334 326 332 0
-335 332 0
334 -335 -326 0
-334 -335 326 0
334 335 326 -332 0
-334 335 -326 -332 0
-336 332 0
334 -336 326 0
-334 -336 -326 0
334 336 -326 -332 0
-334 336 326 -332 0
337 -333 334 0
337 -333 332 0
-337 333 334 0
-337 333 332 0
337 333 -334 -332 0
-337 -333 -334 -332 0
338 334 -332 0
338 -334 332 0
-338 334 332 0
-338 -334 -332 0
339 -337 126 0
339 -337 338 0
-339 337 126 0
-339 337 338 0
339 -337 334 -130 0
339 -337 -334 130 0
-339 337 334 -130 0
-339 337 -334 130 0
339 337 -126 334 130 -338 0
339 337 -126 -334 -130 -338 0
-339 -337 -126 334 130 -338 0
-339 -337 -126 -334 -130 -338 0
341 126 -334 0
341 -126 334 0
-341 126 334 0
-341 -126 -334 0
340 130 -338 0
340 -130 338 0
-340 130 338 0
-340 -130 -338 0
342 -339 341 0
342 -339 338 0
-342 339 341 0
-342 339 338 0
342 339 -341 -338 0
-342 -339 -341 -338 0
343 341 -338 0
343 -341 338 0
-343 341 338 0
-343 -341 -338 0
344 345 -342 0
344 -342 343 0
-344 345 342 0
-344 342 343 0
344 -342 -341 0
-344 342 -341 0
344 -345 342 341 -343 0
-344 -345 -342 341 -343 0
345 -341 343 0
-345 341 343 0
-346 343 0
345 -346 -341 0
-345 -346 341 0
345 346 341 -343 0
-345 346 -341 -343 0
-347 343 0
345 -347 341 0
-345 -347 -341 0
345 347 -341 -343 0
-345 347 341 -343 0
348 -344 345 0
348 -344 343 0
-348 344 345 0
-348 344 343 0
348 344 -345 -343 0
-348 -344 -345 -343 0
349 345 -343 0
349 -345 343 0
-349 345 343 0
-349 -345 -343 0
